NAME: kroC100
COMMENT: ILS com limite de estagnacao = 10 - Fernanda V, Paula Laiz, Stephany | Tempo de execucao: 0.025085s
TYPE: TOUR
DIMENSION: 100
TOTAL_WEIGHT: 21010
TOUR_SECTION
1
53
24
32
61
26
7
82
78
9
37
16
51
63
44
66
48
84
11
52
87
96
97
81
45
33
100
74
57
36
10
92
19
99
14
69
3
73
59
41
89
30
68
2
35
23
21
70
76
91
94
95
50
62
83
72
86
5
43
56
71
38
39
28
88
98
58
34
90
25
17
8
22
75
54
6
47
31
67
55
42
20
64
79
13
65
80
77
60
4
93
49
18
29
46
12
40
27
15
85
EOF
